SDVRP instances/custom_instances/p03_8_split0.vrp
NAME:p03_8_split
BEST_KNOWN: 0
COMMENT: 0
DIMENSION: 472
CAPACITY: 200
EDGE_WEIGHT_FORMAT: FUNCTION
EDGE_WEIGHT_TYPE: EXACT_2D
NODE_COORD_SECTION
1 0.00000 0.00000
2 -13 -41
3 -13 -41
4 -13 -41
5 -13 -41
6 -13 -41
7 -13 -41
8 -13 -41
9 10 44
10 10 44
11 10 44
12 10 44
13 10 44
14 10 44
15 5 -38
16 5 -38
17 5 -38
18 5 -38
19 -17 -9
20 -17 -9
21 -17 -9
22 -17 -9
23 20 -38
24 20 -38
25 20 -38
26 20 -38
27 20 -38
28 43 20
29 43 20
30 43 20
31 43 20
32 43 20
33 43 20
34 43 20
35 -18 14
36 -18 14
37 -18 14
38 -18 14
39 -18 14
40 38 -16
41 38 -16
42 38 -16
43 -21 41
44 -21 41
45 -21 41
46 -21 41
47 -21 41
48 -21 41
49 -21 41
50 -1 -23
51 -1 -23
52 -1 -23
53 -1 -23
54 7 36
55 7 36
56 7 36
57 7 36
58 20 7
59 20 7
60 20 7
61 20 7
62 -1 30
63 -1 30
64 -1 30
65 -1 30
66 -1 30
67 -1 30
68 -1 30
69 15 -8
70 15 -8
71 15 -8
72 15 -8
73 15 -8
74 35 -4
75 35 -4
76 35 -4
77 -10 -39
78 -10 -39
79 -10 -39
80 -29 -22
81 -29 -22
82 -29 -22
83 -29 -22
84 -29 -22
85 -22 -10
86 -22 -10
87 -22 -10
88 -22 -10
89 -22 -10
90 37 -19
91 37 -19
92 37 -19
93 37 -19
94 37 -19
95 -13 33
96 -13 33
97 48 39
98 48 39
99 -34 -3
100 -34 -3
101 -34 -3
102 -34 -3
103 -34 -3
104 -34 -3
105 -34 -3
106 -14 29
107 -14 29
108 -14 29
109 -14 29
110 -14 29
111 -14 29
112 -14 29
113 -14 29
114 -36 30
115 -36 30
116 -36 30
117 -36 30
118 -36 30
119 -36 30
120 -36 30
121 34 7
122 34 7
123 34 7
124 -38 41
125 -38 41
126 -38 41
127 -38 41
128 -38 41
129 -38 41
130 -33 34
131 -33 34
132 -33 34
133 -33 34
134 -33 34
135 6 -50
136 6 -50
137 6 -50
138 6 -50
139 6 -50
140 -4 1
141 -4 1
142 -4 1
143 -4 1
144 -43 50
145 -43 50
146 -43 50
147 2 2
148 2 2
149 2 2
150 2 2
151 2 2
152 -15 23
153 -15 23
154 -15 23
155 -15 23
156 -15 23
157 -15 23
158 -46 -37
159 -46 -37
160 -46 -37
161 -46 -37
162 30 44
163 30 44
164 30 44
165 30 44
166 30 44
167 30 44
168 30 44
169 14 23
170 14 23
171 14 23
172 14 23
173 36 -16
174 36 -16
175 36 -16
176 36 -16
177 36 -16
178 32 -23
179 32 -23
180 32 -23
181 32 -23
182 -25 13
183 -25 13
184 -25 13
185 -25 13
186 -25 13
187 -25 13
188 -25 13
189 40 -22
190 40 -22
191 -42 34
192 -42 34
193 -42 34
194 -42 34
195 -42 34
196 39 9
197 39 9
198 -23 -13
199 -23 -13
200 -23 -13
201 -23 -13
202 -23 -13
203 -46 10
204 -46 10
205 -46 10
206 -46 10
207 -23 23
208 -23 23
209 -23 23
210 -23 23
211 -23 23
212 -23 23
213 -17 -27
214 -17 -27
215 -21 -30
216 -21 -30
217 -21 -30
218 -21 -30
219 -21 -30
220 50 17
221 50 17
222 50 17
223 -31 -15
224 -31 -15
225 -31 -15
226 33 -14
227 33 -14
228 33 -14
229 33 -14
230 -10 -43
231 -10 -43
232 -10 -43
233 -10 -43
234 -10 -43
235 -10 -43
236 -44 -47
237 -44 -47
238 -44 -47
239 -9 31
240 -9 31
241 -9 31
242 29 -6
243 29 -6
244 29 -6
245 38 -31
246 38 -31
247 38 -31
248 38 -31
249 22 0
250 22 0
251 22 0
252 16 40
253 16 40
254 16 40
255 16 40
256 16 40
257 -31 18
258 -31 18
259 -31 18
260 -31 18
261 -20 -28
262 -20 -28
263 -20 -28
264 -20 -28
265 -20 -28
266 -20 -28
267 -20 -28
268 -27 -27
269 -27 -27
270 -27 -27
271 -27 -27
272 -27 -27
273 -27 -27
274 -27 -27
275 -40 -21
276 -40 -21
277 -40 -21
278 -40 -21
279 -40 -21
280 -49 -39
281 -49 -39
282 -49 -39
283 13 20
284 13 20
285 13 20
286 13 20
287 13 20
288 5 2
289 5 2
290 5 2
291 5 2
292 -46 -44
293 -46 -44
294 -46 -44
295 -46 -44
296 -46 -44
297 -46 -44
298 -19 39
299 -19 39
300 19 -1
301 19 -1
302 19 -1
303 19 -1
304 34 -45
305 34 -45
306 34 -45
307 34 -45
308 34 -45
309 34 -45
310 42 42
311 42 42
312 42 42
313 42 42
314 42 42
315 42 33
316 42 33
317 42 33
318 42 33
319 42 33
320 42 33
321 42 33
322 -28 18
323 -28 18
324 -28 18
325 -28 18
326 -28 18
327 -28 18
328 -28 18
329 37 -10
330 37 -10
331 37 -10
332 37 -10
333 37 -10
334 37 -10
335 37 -10
336 22 -45
337 22 -45
338 22 -45
339 22 -45
340 22 -45
341 22 -45
342 -22 -37
343 -22 -37
344 -22 -37
345 36 -46
346 36 -46
347 36 -46
348 36 -46
349 -12 -12
350 -12 -12
351 -12 -12
352 -12 -12
353 -12 -12
354 -12 -12
355 -25 -40
356 -25 -40
357 -25 -40
358 -25 -40
359 -25 -40
360 -25 -40
361 -25 -40
362 -49 -27
363 -49 -27
364 -49 -27
365 -49 -27
366 -49 -27
367 25 -24
368 25 -24
369 25 -24
370 25 -24
371 25 -24
372 32 28
373 32 28
374 32 28
375 36 10
376 36 10
377 36 10
378 36 10
379 36 10
380 36 10
381 36 10
382 -3 41
383 -3 41
384 -3 41
385 -3 41
386 -3 41
387 27 37
388 27 37
389 27 37
390 27 37
391 27 37
392 27 37
393 -15 10
394 -15 10
395 -15 10
396 -15 10
397 -15 10
398 26 -50
399 26 -50
400 26 -50
401 26 -50
402 -19 20
403 -19 20
404 -19 20
405 -19 20
406 -19 20
407 -26 17
408 -26 17
409 -26 17
410 -24 -8
411 -24 -8
412 -24 -8
413 -24 -8
414 -24 -8
415 -24 -8
416 -17 28
417 -17 28
418 -17 28
419 -17 28
420 21 26
421 21 26
422 21 26
423 -25 -8
424 -25 -8
425 -25 -8
426 -25 -8
427 39 24
428 39 24
429 39 24
430 39 24
431 7 31
432 7 31
433 1 9
434 1 9
435 1 9
436 1 9
437 1 9
438 1 9
439 16 8
440 16 8
441 16 8
442 29 49
443 29 49
444 29 49
445 29 49
446 37 33
447 37 33
448 37 33
449 37 33
450 37 33
451 -43 -1
452 -43 -1
453 -43 -1
454 -43 -1
455 -43 -1
456 -43 -1
457 -40 -25
458 -40 -25
459 -40 -25
460 -40 -25
461 -40 -25
462 -29 31
463 -29 31
464 -29 31
465 -29 31
466 -29 31
467 -19 -16
468 -19 -16
469 -19 -16
470 -19 -16
471 -19 -16
472 -19 -16
DEMAND_SECTION
1 0
2 20
3 10
4 2
5 2
6 2
7 2
8 1
9 40
10 20
11 2
12 2
13 2
14 1
15 40
16 20
17 2
18 1
19 40
20 40
21 2
22 1
23 40
24 40
25 10
26 2
27 1
28 40
29 20
30 10
31 2
32 2
33 2
34 2
35 20
36 2
37 2
38 2
39 2
40 20
41 10
42 1
43 40
44 20
45 2
46 2
47 2
48 2
49 1
50 20
51 10
52 2
53 2
54 40
55 2
56 2
57 1
58 40
59 2
60 2
61 1
62 20
63 10
64 2
65 2
66 2
67 2
68 1
69 40
70 2
71 2
72 2
73 2
74 20
75 10
76 1
77 40
78 2
79 1
80 40
81 40
82 2
83 2
84 2
85 40
86 20
87 2
88 2
89 2
90 40
91 10
92 2
93 2
94 2
95 20
96 10
97 40
98 20
99 20
100 10
101 2
102 2
103 2
104 2
105 1
106 40
107 20
108 10
109 2
110 2
111 2
112 2
113 1
114 40
115 40
116 2
117 2
118 2
119 2
120 1
121 20
122 10
123 1
124 40
125 20
126 10
127 2
128 2
129 1
130 40
131 10
132 2
133 2
134 2
135 40
136 10
137 2
138 2
139 2
140 40
141 40
142 10
143 2
144 40
145 2
146 1
147 20
148 10
149 2
150 2
151 1
152 40
153 40
154 2
155 2
156 2
157 1
158 40
159 10
160 2
161 2
162 40
163 10
164 2
165 2
166 2
167 2
168 1
169 40
170 40
171 2
172 1
173 20
174 10
175 2
176 2
177 2
178 20
179 2
180 2
181 2
182 40
183 40
184 10
185 2
186 2
187 2
188 1
189 40
190 10
191 40
192 10
193 2
194 2
195 2
196 40
197 2
198 20
199 10
200 2
201 2
202 1
203 20
204 2
205 2
206 2
207 40
208 20
209 10
210 2
211 2
212 2
213 40
214 1
215 40
216 40
217 2
218 2
219 1
220 40
221 2
222 2
223 20
224 10
225 2
226 40
227 20
228 10
229 2
230 40
231 40
232 2
233 2
234 2
235 1
236 40
237 2
238 1
239 40
240 10
241 2
242 40
243 40
244 10
245 40
246 2
247 2
248 1
249 20
250 10
251 2
252 40
253 40
254 10
255 2
256 2
257 40
258 10
259 2
260 1
261 20
262 10
263 2
264 2
265 2
266 2
267 1
268 40
269 40
270 2
271 2
272 2
273 2
274 1
275 40
276 40
277 2
278 2
279 1
280 40
281 20
282 1
283 40
284 10
285 2
286 2
287 2
288 40
289 20
290 10
291 1
292 20
293 10
294 2
295 2
296 2
297 1
298 40
299 2
300 20
301 2
302 2
303 2
304 40
305 20
306 2
307 2
308 2
309 2
310 40
311 2
312 2
313 2
314 2
315 40
316 40
317 2
318 2
319 2
320 2
321 1
322 40
323 40
324 2
325 2
326 2
327 2
328 1
329 40
330 40
331 2
332 2
333 2
334 2
335 1
336 40
337 40
338 2
339 2
340 2
341 1
342 40
343 2
344 2
345 20
346 2
347 2
348 2
349 40
350 10
351 2
352 2
353 2
354 1
355 40
356 40
357 2
358 2
359 2
360 2
361 1
362 40
363 10
364 2
365 2
366 1
367 40
368 10
369 2
370 2
371 1
372 40
373 20
374 1
375 40
376 10
377 2
378 2
379 2
380 2
381 1
382 40
383 2
384 2
385 2
386 2
387 40
388 10
389 2
390 2
391 2
392 2
393 20
394 2
395 2
396 2
397 1
398 40
399 40
400 2
401 2
402 40
403 10
404 2
405 2
406 2
407 20
408 10
409 1
410 40
411 40
412 2
413 2
414 2
415 2
416 20
417 10
418 2
419 2
420 40
421 40
422 20
423 40
424 40
425 2
426 2
427 20
428 10
429 2
430 2
431 40
432 10
433 40
434 20
435 10
436 2
437 2
438 1
439 40
440 10
441 2
442 40
443 10
444 2
445 1
446 20
447 10
448 2
449 2
450 1
451 40
452 40
453 2
454 2
455 2
456 2
457 40
458 20
459 2
460 2
461 2
462 40
463 40
464 10
465 2
466 2
467 40
468 40
469 2
470 2
471 2
472 2
DEPOT_SECTION
1
-1
EOF