SDVRP instances/custom_instances/p03_8_split0.sol
471 -5 7 6 4 1 3 2 234 231 229 232 233 230 76 78 77 50 49 -17 14 16 15 136 138 135 137 134 23 22 -19 201 199 198 197 200 277 278 364 365 363 361 362 460 459 457 456 458 -20 21 18 471 468 470 469 467 466 348 350 349 353 352 351 -25 24 26 400 399 398 397 340 338 335 339 336 337 -36 34 37 407 406 408 324 325 326 327 322 321 323 257 258 256 259 -38 35 209 207 462 129 132 118 114 113 119 115 116 117 -51 52 212 213 343 342 341 356 358 354 360 355 359 357 263 260 -63 66 64 67 65 62 61 12 10 13 11 9 8 251 252 255 254 253 -71 70 72 69 68 242 243 241 248 250 249 299 302 301 300 -74 73 75 328 334 333 331 332 330 329 227 226 225 228 -81 83 80 79 82 274 276 275 222 224 223 -86 87 88 84 85 423 414 412 411 410 409 413 -95 94 298 297 48 46 42 47 43 45 44 461 464 463 465 -107 105 109 111 112 110 106 108 415 416 417 418 155 156 152 154 151 153 -120 121 122 379 374 380 378 376 377 375 59 60 58 57 440 438 439 290 289 -140 141 139 142 -146 147 -148 149 150 -158 159 160 157 279 281 280 293 291 294 292 296 295 237 235 236 -170 171 168 169 282 286 285 284 283 287 288 -173 176 175 174 172 39 41 40 90 93 91 92 89 189 188 178 179 177 180 -181 182 183 186 185 187 184 206 210 405 401 403 402 404 -191 190 193 194 192 143 144 145 125 123 126 128 124 127 131 130 133 211 208 -195 196 219 220 221 32 31 28 30 33 29 27 427 428 429 426 -203 205 202 204 453 450 451 455 452 454 102 100 98 99 103 101 104 422 425 424 -239 240 238 384 382 385 383 381 55 56 54 53 430 431 -265 264 262 266 261 215 214 218 216 217 273 267 271 270 269 272 268 -306 305 308 303 304 307 344 346 345 347 247 244 245 246 366 367 370 369 368 -313 311 312 309 310 96 97 318 315 316 314 317 320 319 -373 372 371 446 447 445 449 448 419 420 421 -390 388 389 391 386 387 162 165 164 167 166 163 161 441 444 443 442 393 395 394 396 392 -432 434 436 437 433 435 0 





OBJ=
2802.976
BEST_KNOWN=
0.000